k = 46;
b = 23;
AtomicConstraints =  [|
4, 3|
	5, 1|
	5, 2|
	6, 1|
	6, 2|
	6, 5|
	7, 23|
	8, 24|
	8, 7|
	8, 26|
	8, 29|
	8, 28|
	8, 27|
	8, 23|
	9, 24|
	9, 7|
	9, 25|
	9, 26|
	9, 8|
	9, 10|
	9, 12|
	9, 29|
	9, 28|
	9, 27|
	9, 23|
	26, 24|
	26, 28|
	10, 24|
	10, 7|
	10, 26|
	10, 29|
	10, 28|
	10, 27|
	10, 23|
	11, 24|
	11, 7|
	11, 25|
	11, 26|
	11, 8|
	11, 10|
	11, 12|
	11, 29|
	11, 14|
	11, 28|
	11, 27|
	11, 23|
	12, 7|
	12, 28|
	12, 27|
	12, 23|
	13, 7|
	13, 25|
	13, 10|
	13, 12|
	13, 14|
	13, 15|
	13, 28|
	13, 27|
	13, 23|
	14, 7|
	14, 25|
	14, 23|
	15, 25|
	16, 25|
	16, 15|
	16, 17|
	29, 24|
	29, 7|
	29, 26|
	29, 28|
	29, 23|
	17, 25|
	18, 25|
	18, 15|
	18, 17|
	18, 19|
	20, 17|
	20, 19|
	20, 21|
	22, 19|
	22, 21|
	27, 24|
	27, 7|
	27, 26|
	27, 28|
	27, 23|
	42, 40|
	42, 44|
	40, 44|
	31, 17|
	31, 19|
	31, 20|
	31, 21|
	31, 22|
	31, 30|
	31, 45|
	31, 41|
	31, 43|
	31, 46|
	35, 19|
	35, 21|
	35, 30|
	35, 45|
	35, 41|
	35, 43|
	35, 46|
	33, 30|
	33, 45|
	33, 41|
	33, 43|
	33, 46|
	34, 24|
	34, 7|
	34, 25|
	34, 26|
	34, 8|
	34, 9|
	34, 10|
	34, 11|
	34, 12|
	34, 13|
	34, 29|
	34, 14|
	34, 15|
	34, 16|
	34, 28|
	34, 17|
	34, 18|
	34, 19|
	34, 20|
	34, 21|
	34, 22|
	34, 27|
	34, 23|
	36, 24|
	36, 7|
	36, 25|
	36, 26|
	36, 8|
	36, 9|
	36, 10|
	36, 11|
	36, 12|
	36, 13|
	36, 29|
	36, 14|
	36, 15|
	36, 16|
	36, 28|
	36, 17|
	36, 18|
	36, 19|
	36, 20|
	36, 21|
	36, 22|
	36, 27|
	36, 23|
	32, 24|
	32, 7|
	32, 25|
	32, 26|
	32, 8|
	32, 9|
	32, 10|
	32, 11|
	32, 12|
	32, 13|
	32, 29|
	32, 14|
	32, 15|
	32, 16|
	32, 28|
	32, 17|
	32, 18|
	32, 19|
	32, 20|
	32, 21|
	32, 22|
	32, 27|
	32, 23|
	39, 1|
	39, 2|
	39, 5|
	39, 43|
	39, 46|
	39, 37|
	39, 38|
	37, 1|
	37, 2|
	37, 43|
	37, 46|
	37, 38|
	38, 1|
	38, 2|
	38, 43|
	38, 46|];
DisjunctiveConstraints =  [|8, 1, 8, 24|
	8, 3, 8, 26|
	8, 6, 8, 29|
	9, 1, 9, 24|
	9, 3, 9, 26|
	9, 6, 9, 29|
	26, 1, 26, 24|
	10, 4, 10, 27|
	10, 5, 10, 28|
	10, 8, 10, 12|
	11, 1, 11, 24|
	11, 4, 11, 27|
	11, 5, 11, 28|
	11, 9, 11, 13|
	12, 10, 12, 14|
	14, 7, 14, 30|
	14, 12, 14, 15|
	14, 46, 14, 23|
	15, 2, 15, 25|
	15, 14, 15, 17|
	16, 2, 16, 25|
	16, 15, 16, 38|
	29, 1, 29, 24|
	29, 3, 29, 26|
	17, 15, 17, 19|
	18, 16, 18, 20|
	19, 17, 19, 21|
	20, 18, 20, 22|
	28, 24, 28, 23|
	27, 5, 27, 28|
	45, 30, 45, 41|
	41, 45, 41, 43|
	43, 41, 43, 46|
	31, 22, 31, 45|
	31, 42, 31, 19|
	35, 7, 30, 35|
	35, 17, 40, 35|
	35, 31, 35, 33|
	33, 19, 42, 33|
	36, 32, 36, 34|
	39, 14, 39, 37|
	39, 15, 39, 38|
	39, 43, 39, 20|
	37, 15, 37, 38|
	37, 43, 37, 20|
	38, 41, 18, 38|
	38, 43, 38, 20|];
SoftAtomicConstraints =  [|
2, 1|
26, 7|
8, 10|
9, 11|
10, 12|
11, 13|
12, 14|
14, 15|
15, 17|
16, 18|
17, 19|
18, 20|
19, 21|
20, 22|
28, 23|
27, 25|
29, 27|
24, 28|
35, 33|
36, 34|
31, 35|
32, 36|
45, 41|
41, 43|
30, 45|
43, 46|];
DirectSuccessors =  [24,
25,
26,
9,
11,
13,
29,
14,
15,
16,
28,
27,
34,
36,
32,
39,
37,
38];
